542,833
858,753
999,724
909,480
857,164
681,286
584,336
351,406
628,379
778,476
744,343
857,164
801,36
382,-6
586,593
644,520
628,379
744,343
778,476
1055,216
1108,267
858,59
801,36
792,64
910,91
871,32
912,-48
1055,216
1023,295
909,480
681,766
746,820
858,753
1093,705
999,724
803,646
681,496
681,556
789,619
975,555
751,850
542,833
339,517
617,605
681,496
